29337.9
21 14 19 5 36 82 17 29 55 94 22 38 3 40 30 25 44 10 67 47 88 13 31 99 15 20 50 48 2 58 63 24 95 41 45 97 90 6 57 46 79 7 73 85 72 51 93 78 70 74 43 75 83 76 89 18 53 52 1 80 61 23 26 62 71 37 49 0 56 33 60 39 16 69 12 84 4 81 59 96 54 64 68 32 65 91 86 34 87 35 11 77 9 66 98 42 27 8 28 92 
